(set-logic HORN)
(set-info :source |
  Benchmark: ../golem/build/RealCodeNested/originalcodeUFLIAmbiZ3sceleton3.c
  Generated by Korn 0.4 https://github.com/gernst/korn
|)


(declare-fun $main_inv3 (Int Int Int Int Int Int Int Int Int Int Int Int Int Int) Bool)
(declare-fun __assert_fail (Int Int Int Int) Bool)
(declare-fun $main_sum1 (Int Int Int Int Int Int Int Int Int Int Int Int Int Int) Bool)
(declare-fun $__VERIFIER_assert_pre (Int) Bool)
(declare-fun $__VERIFIER_assert_if1 (Int Int) Bool)
(declare-fun $main_sum3 (Int Int Int Int Int Int Int Int Int Int Int Int Int Int) Bool)
(declare-fun $main_inv2 (Int Int Int Int Int Int Int Int Int Int Int Int Int Int) Bool)
(declare-fun $main_inv1 (Int Int Int Int Int Int Int Int Int Int Int Int Int Int) Bool)
(declare-fun $my_v_pre () Bool)
(declare-fun my_v (Int) Bool)
(declare-fun $main_if4 (Int Int Int Int Int Int Int Int Int Int Int Int Int Int Int Int Int Int Int Int Int Int Int Int Int Int Int Int) Bool)
(declare-fun __VERIFIER_assert (Int) Bool)
(declare-fun $main_sum2 (Int Int Int Int Int Int Int Int Int Int Int Int Int Int) Bool)
(declare-fun $main_if5 (Int Int Int Int Int Int Int Int Int Int Int Int Int Int Int Int Int Int Int Int Int Int Int Int Int Int Int Int) Bool)
(declare-fun $__assert_fail_pre (Int Int Int Int) Bool)
(declare-fun $main_if2 (Int Int Int Int Int Int Int Int Int Int Int Int Int Int Int Int Int Int Int Int Int Int Int Int Int Int Int Int) Bool)
(declare-fun $main_if3 (Int Int Int Int Int Int Int Int Int Int Int Int Int Int Int Int Int Int Int Int Int Int Int Int Int Int Int Int) Bool)
(declare-fun $__VERIFIER_assert_ERROR (Int Int) Bool)

; label ERROR
(assert
  (forall ((cond!1 Int))
    (=> (and (not (not (= cond!1 0)))
             ($__VERIFIER_assert_pre cond!1))
        ($__VERIFIER_assert_ERROR cond!1 cond!1))))

; error
(assert
  (forall ((cond!1 Int) (cond!2 Int))
    (=> (and ($__VERIFIER_assert_ERROR cond!1 cond!2))
        false)))

; if else
(assert
  (forall ((cond!1 Int))
    (=> (and (not (not (not (= cond!1 0))))
             ($__VERIFIER_assert_pre cond!1))
        ($__VERIFIER_assert_if1 cond!1 cond!1))))

; post __VERIFIER_assert
(assert
  (forall ((cond!1 Int) (cond!3 Int))
    (=> (and ($__VERIFIER_assert_if1 cond!1 cond!3))
        (__VERIFIER_assert cond!1))))

; loop entry $main_inv1 (line 19)
(assert
  (forall ((todo!6 Int) (exprSize!14 Int) (trail!4 Int) (cache!5 Int) (isShared!12 Int) (found!15 Int) (containsE!10 Int) (size!8 Int) (args!7 Int) (i!13 Int) (j!16 Int) (litsSize!9 Int) (isApp!11 Int) (lit!17 Int))
    (=> (and (<= 20 litsSize!9)
             (<= litsSize!9 5024)
             (<= 10 size!8)
             (<= size!8 1024)
             (= args!7 0)
             (= todo!6 1)
             (= cache!5 0)
             (= trail!4 0))
        ($main_inv1 trail!4 cache!5 todo!6 args!7 size!8 litsSize!9 containsE!10 isApp!11 isShared!12 i!13 exprSize!14 found!15 j!16 lit!17))))

; loop term $main_sum1 (line 19)
(assert
  (forall ((todo!20 Int) (lit!31 Int) (cache!19 Int) (trail!18 Int) (containsE!24 Int) (j!30 Int) (found!29 Int) (isApp!25 Int) (exprSize!28 Int) (size!22 Int) (litsSize!23 Int) (isShared!26 Int) (i!27 Int) (args!21 Int))
    (=> (and (not (> size!22 0))
             ($main_inv1 trail!18 cache!19 todo!20 args!21 size!22 litsSize!23 containsE!24 isApp!25 isShared!26 i!27 exprSize!28 found!29 j!30 lit!31))
        ($main_sum1 trail!18 cache!19 todo!20 args!21 size!22 litsSize!23 containsE!24 isApp!25 isShared!26 i!27 exprSize!28 found!29 j!30 lit!31))))

; if then
(assert
  (forall ((todo!20 Int) (lit!31 Int) (cache!19 Int) (trail!18 Int) (containsE!24 Int) (j!30 Int) (found!29 Int) (isApp!25 Int) (exprSize!28 Int) (size!22 Int) (litsSize!23 Int) (isShared!26 Int) (i!27 Int) (args!21 Int))
    (=> (and (= containsE!24 1)
             (<= 0 containsE!24)
             (<= containsE!24 1)
             (> size!22 0)
             ($main_inv1 trail!18 cache!19 todo!20 args!21 size!22 litsSize!23 containsE!24 isApp!25 isShared!26 i!27 exprSize!28 found!29 j!30 lit!31))
        ($main_if2 trail!18 cache!19 todo!20 args!21 size!22 litsSize!23 containsE!24 isApp!25 isShared!26 i!27 exprSize!28 found!29 j!30 lit!31 trail!18 cache!19 0 args!21 size!22 litsSize!23 containsE!24 isApp!25 isShared!26 i!27 exprSize!28 found!29 j!30 lit!31))))

; if else
(assert
  (forall ((todo!20 Int) (lit!31 Int) (cache!19 Int) (trail!18 Int) (containsE!24 Int) (j!30 Int) (found!29 Int) (isApp!25 Int) (exprSize!28 Int) (size!22 Int) (litsSize!23 Int) (isShared!26 Int) (i!27 Int) (args!21 Int))
    (=> (and (not (= containsE!24 1))
             (<= 0 containsE!24)
             (<= containsE!24 1)
             (> size!22 0)
             ($main_inv1 trail!18 cache!19 todo!20 args!21 size!22 litsSize!23 containsE!24 isApp!25 isShared!26 i!27 exprSize!28 found!29 j!30 lit!31))
        ($main_if2 trail!18 cache!19 todo!20 args!21 size!22 litsSize!23 containsE!24 isApp!25 isShared!26 i!27 exprSize!28 found!29 j!30 lit!31 trail!18 cache!19 todo!20 args!21 size!22 litsSize!23 containsE!24 isApp!25 isShared!26 i!27 exprSize!28 found!29 j!30 lit!31))))

; if then
(assert
  (forall ((lit!45 Int) (todo!20 Int) (todo!34 Int) (trail!32 Int) (containsE!38 Int) (lit!31 Int) (cache!19 Int) (trail!18 Int) (size!36 Int) (isShared!40 Int) (exprSize!42 Int) (containsE!24 Int) (litsSize!37 Int) (i!41 Int) (found!29 Int) (cache!33 Int) (exprSize!28 Int) (size!22 Int) (args!35 Int) (j!44 Int) (j!30 Int) (found!43 Int) (litsSize!23 Int) (isShared!26 Int) (isApp!39 Int) (isApp!25 Int) (i!27 Int) (args!21 Int))
    (=> (and (= isApp!39 0)
             (<= 0 isApp!39)
             (<= isApp!39 1)
             ($main_if2 trail!18 cache!19 todo!20 args!21 size!22 litsSize!23 containsE!24 isApp!25 isShared!26 i!27 exprSize!28 found!29 j!30 lit!31 trail!32 cache!33 todo!34 args!35 size!36 litsSize!37 containsE!38 isApp!39 isShared!40 i!41 exprSize!42 found!43 j!44 lit!45))
        ($main_if3 trail!18 cache!19 todo!20 args!21 size!22 litsSize!23 containsE!24 isApp!25 isShared!26 i!27 exprSize!28 found!29 j!30 lit!31 trail!32 1 todo!34 args!35 (+ size!36 1) litsSize!37 containsE!38 isApp!39 isShared!40 i!41 exprSize!42 found!43 j!44 lit!45))))

; if else
(assert
  (forall ((lit!45 Int) (todo!20 Int) (todo!34 Int) (trail!32 Int) (containsE!38 Int) (lit!31 Int) (cache!19 Int) (trail!18 Int) (size!36 Int) (isShared!40 Int) (exprSize!42 Int) (containsE!24 Int) (litsSize!37 Int) (i!41 Int) (found!29 Int) (cache!33 Int) (exprSize!28 Int) (size!22 Int) (args!35 Int) (j!44 Int) (j!30 Int) (found!43 Int) (litsSize!23 Int) (isShared!26 Int) (isApp!39 Int) (isApp!25 Int) (i!27 Int) (args!21 Int))
    (=> (and (not (= isApp!39 0))
             (<= 0 isApp!39)
             (<= isApp!39 1)
             ($main_if2 trail!18 cache!19 todo!20 args!21 size!22 litsSize!23 containsE!24 isApp!25 isShared!26 i!27 exprSize!28 found!29 j!30 lit!31 trail!32 cache!33 todo!34 args!35 size!36 litsSize!37 containsE!38 isApp!39 isShared!40 i!41 exprSize!42 found!43 j!44 lit!45))
        ($main_if3 trail!18 cache!19 todo!20 args!21 size!22 litsSize!23 containsE!24 isApp!25 isShared!26 i!27 exprSize!28 found!29 j!30 lit!31 trail!32 cache!33 todo!34 args!35 size!36 litsSize!37 containsE!38 isApp!39 isShared!40 i!41 exprSize!42 found!43 j!44 lit!45))))

; if then
(assert
  (forall ((todo!20 Int) (found!57 Int) (todo!48 Int) (cache!19 Int) (isShared!54 Int) (j!58 Int) (containsE!24 Int) (found!29 Int) (isApp!25 Int) (lit!31 Int) (i!55 Int) (exprSize!28 Int) (size!22 Int) (isApp!53 Int) (exprSize!56 Int) (trail!18 Int) (size!50 Int) (litsSize!51 Int) (j!30 Int) (lit!59 Int) (containsE!52 Int) (args!49 Int) (litsSize!23 Int) (isShared!26 Int) (trail!46 Int) (i!27 Int) (args!21 Int) (cache!47 Int))
    (=> (and (= isShared!54 0)
             (<= 0 isShared!54)
             (<= isShared!54 1)
             ($main_if3 trail!18 cache!19 todo!20 args!21 size!22 litsSize!23 containsE!24 isApp!25 isShared!26 i!27 exprSize!28 found!29 j!30 lit!31 trail!46 cache!47 todo!48 args!49 size!50 litsSize!51 containsE!52 isApp!53 isShared!54 i!55 exprSize!56 found!57 j!58 lit!59))
        ($main_if4 trail!18 cache!19 todo!20 args!21 size!22 litsSize!23 containsE!24 isApp!25 isShared!26 i!27 exprSize!28 found!29 j!30 lit!31 1 1 todo!48 (+ args!49 1) (+ size!50 1) litsSize!51 containsE!52 isApp!53 isShared!54 i!55 exprSize!56 found!57 j!58 lit!59))))

; if else
(assert
  (forall ((todo!20 Int) (found!57 Int) (todo!48 Int) (cache!19 Int) (isShared!54 Int) (j!58 Int) (containsE!24 Int) (found!29 Int) (isApp!25 Int) (lit!31 Int) (i!55 Int) (exprSize!28 Int) (size!22 Int) (isApp!53 Int) (exprSize!56 Int) (trail!18 Int) (size!50 Int) (litsSize!51 Int) (j!30 Int) (lit!59 Int) (containsE!52 Int) (args!49 Int) (litsSize!23 Int) (isShared!26 Int) (trail!46 Int) (i!27 Int) (args!21 Int) (cache!47 Int))
    (=> (and (not (= isShared!54 0))
             (<= 0 isShared!54)
             (<= isShared!54 1)
             ($main_if3 trail!18 cache!19 todo!20 args!21 size!22 litsSize!23 containsE!24 isApp!25 isShared!26 i!27 exprSize!28 found!29 j!30 lit!31 trail!46 cache!47 todo!48 args!49 size!50 litsSize!51 containsE!52 isApp!53 isShared!54 i!55 exprSize!56 found!57 j!58 lit!59))
        ($main_if4 trail!18 cache!19 todo!20 args!21 size!22 litsSize!23 containsE!24 isApp!25 isShared!26 i!27 exprSize!28 found!29 j!30 lit!31 trail!46 cache!47 todo!48 (+ args!49 1) size!50 litsSize!51 containsE!52 isApp!53 isShared!54 i!55 exprSize!56 found!57 j!58 lit!59))))

; loop entry $main_inv2 (line 43)
(assert
  (forall ((containsE!66 Int) (isApp!67 Int) (lit!31 Int) (litsSize!65 Int) (cache!19 Int) (args!63 Int) (trail!18 Int) (containsE!24 Int) (j!30 Int) (todo!62 Int) (j!72 Int) (todo!20 Int) (i!69 Int) (found!71 Int) (trail!60 Int) (lit!73 Int) (exprSize!28 Int) (size!22 Int) (litsSize!23 Int) (isShared!26 Int) (isShared!68 Int) (found!29 Int) (exprSize!70 Int) (cache!61 Int) (isApp!25 Int) (size!64 Int) (i!27 Int) (args!21 Int))
    (=> (and (<= 0 exprSize!70)
             (<= exprSize!70 5000)
             (= i!69 0)
             ($main_if4 trail!18 cache!19 todo!20 args!21 size!22 litsSize!23 containsE!24 isApp!25 isShared!26 i!27 exprSize!28 found!29 j!30 lit!31 trail!60 cache!61 todo!62 args!63 size!64 litsSize!65 containsE!66 isApp!67 isShared!68 i!69 exprSize!70 found!71 j!72 lit!73))
        ($main_inv2 trail!60 cache!61 todo!62 args!63 size!64 litsSize!65 containsE!66 isApp!67 isShared!68 i!69 exprSize!70 found!71 j!72 lit!73))))

; loop term $main_sum2 (line 43)
(assert
  (forall ((containsE!80 Int) (trail!74 Int) (lit!87 Int) (todo!76 Int) (i!83 Int) (litsSize!79 Int) (exprSize!84 Int) (size!78 Int) (found!85 Int) (args!77 Int) (cache!75 Int) (isApp!81 Int) (j!86 Int) (isShared!82 Int))
    (=> (and (not (< i!83 exprSize!84))
             ($main_inv2 trail!74 cache!75 todo!76 args!77 size!78 litsSize!79 containsE!80 isApp!81 isShared!82 i!83 exprSize!84 found!85 j!86 lit!87))
        ($main_sum2 trail!74 cache!75 todo!76 args!77 size!78 litsSize!79 containsE!80 isApp!81 isShared!82 i!83 exprSize!84 found!85 j!86 lit!87))))

; if then
(assert
  (forall ((containsE!80 Int) (trail!74 Int) (lit!87 Int) (todo!76 Int) (i!83 Int) (litsSize!79 Int) (exprSize!84 Int) (size!78 Int) (found!85 Int) (args!77 Int) (cache!75 Int) (isApp!81 Int) (j!86 Int) (isShared!82 Int))
    (=> (and (not (= found!85 1))
             (<= 0 found!85)
             (<= found!85 1)
             (< i!83 exprSize!84)
             ($main_inv2 trail!74 cache!75 todo!76 args!77 size!78 litsSize!79 containsE!80 isApp!81 isShared!82 i!83 exprSize!84 found!85 j!86 lit!87))
        ($main_if5 trail!74 cache!75 todo!76 args!77 size!78 litsSize!79 containsE!80 isApp!81 isShared!82 i!83 exprSize!84 found!85 j!86 lit!87 trail!74 cache!75 todo!76 args!77 (+ size!78 1) litsSize!79 containsE!80 isApp!81 isShared!82 i!83 exprSize!84 found!85 j!86 lit!87))))

; if else
(assert
  (forall ((containsE!80 Int) (trail!74 Int) (lit!87 Int) (todo!76 Int) (i!83 Int) (litsSize!79 Int) (exprSize!84 Int) (size!78 Int) (found!85 Int) (args!77 Int) (cache!75 Int) (isApp!81 Int) (j!86 Int) (isShared!82 Int))
    (=> (and (not (not (= found!85 1)))
             (<= 0 found!85)
             (<= found!85 1)
             (< i!83 exprSize!84)
             ($main_inv2 trail!74 cache!75 todo!76 args!77 size!78 litsSize!79 containsE!80 isApp!81 isShared!82 i!83 exprSize!84 found!85 j!86 lit!87))
        ($main_if5 trail!74 cache!75 todo!76 args!77 size!78 litsSize!79 containsE!80 isApp!81 isShared!82 i!83 exprSize!84 found!85 j!86 lit!87 trail!74 cache!75 todo!76 args!77 size!78 litsSize!79 containsE!80 isApp!81 isShared!82 i!83 exprSize!84 found!85 j!86 lit!87))))

; forwards $main_inv2 (line 43)
(assert
  (forall ((trail!74 Int) (trail!88 Int) (todo!76 Int) (i!83 Int) (litsSize!79 Int) (i!97 Int) (exprSize!84 Int) (size!78 Int) (containsE!80 Int) (lit!101 Int) (exprSize!98 Int) (j!100 Int) (cache!89 Int) (args!91 Int) (isApp!95 Int) (found!99 Int) (litsSize!93 Int) (lit!87 Int) (isShared!96 Int) (containsE!94 Int) (cache!75 Int) (isApp!81 Int) (j!86 Int) (isShared!82 Int) (found!85 Int) (size!92 Int) (todo!90 Int) (args!77 Int))
    (=> (and ($main_if5 trail!74 cache!75 todo!76 args!77 size!78 litsSize!79 containsE!80 isApp!81 isShared!82 i!83 exprSize!84 found!85 j!86 lit!87 trail!88 cache!89 todo!90 args!91 size!92 litsSize!93 containsE!94 isApp!95 isShared!96 i!97 exprSize!98 found!99 j!100 lit!101))
        ($main_inv2 trail!88 cache!89 todo!90 args!91 size!92 litsSize!93 containsE!94 isApp!95 isShared!96 (+ i!97 1) exprSize!98 found!99 j!100 lit!101))))

; forwards $main_inv1 (line 19)
(assert
  (forall ((lit!115 Int) (isShared!110 Int) (args!105 Int) (j!114 Int) (containsE!108 Int) (isApp!109 Int) (todo!104 Int) (cache!103 Int) (litsSize!107 Int) (exprSize!112 Int) (size!106 Int) (found!113 Int) (i!111 Int) (trail!102 Int))
    (=> (and ($main_sum2 trail!102 cache!103 todo!104 args!105 size!106 litsSize!107 containsE!108 isApp!109 isShared!110 i!111 exprSize!112 found!113 j!114 lit!115))
        ($main_inv1 1 1 todo!104 args!105 (- size!106 1) litsSize!107 containsE!108 isApp!109 isShared!110 i!111 exprSize!112 found!113 j!114 lit!115))))

; loop entry $main_inv3 (line 58)
(assert
  (forall ((exprSize!126 Int) (size!120 Int) (cache!117 Int) (j!128 Int) (lit!129 Int) (args!119 Int) (found!127 Int) (isApp!123 Int) (trail!116 Int) (i!125 Int) (todo!118 Int) (containsE!122 Int) (isShared!124 Int) (litsSize!121 Int))
    (=> (and (= j!128 0)
             ($main_sum1 trail!116 cache!117 todo!118 args!119 size!120 litsSize!121 containsE!122 isApp!123 isShared!124 i!125 exprSize!126 found!127 j!128 lit!129))
        ($main_inv3 trail!116 cache!117 todo!118 args!119 size!120 litsSize!121 containsE!122 isApp!123 isShared!124 i!125 exprSize!126 found!127 j!128 lit!129))))

; loop term $main_sum3 (line 58)
(assert
  (forall ((litsSize!135 Int) (isShared!138 Int) (found!141 Int) (lit!143 Int) (args!133 Int) (containsE!136 Int) (i!139 Int) (trail!130 Int) (size!134 Int) (j!142 Int) (todo!132 Int) (isApp!137 Int) (exprSize!140 Int) (cache!131 Int))
    (=> (and (not (< j!142 litsSize!135))
             ($main_inv3 trail!130 cache!131 todo!132 args!133 size!134 litsSize!135 containsE!136 isApp!137 isShared!138 i!139 exprSize!140 found!141 j!142 lit!143))
        ($main_sum3 trail!130 cache!131 todo!132 args!133 size!134 litsSize!135 containsE!136 isApp!137 isShared!138 i!139 exprSize!140 found!141 j!142 lit!143))))

; forwards $main_inv3 (line 58)
(assert
  (forall ((litsSize!135 Int) (isShared!138 Int) (found!141 Int) (lit!143 Int) (args!133 Int) (containsE!136 Int) (i!139 Int) (trail!130 Int) (size!134 Int) (j!142 Int) (todo!132 Int) (isApp!137 Int) (exprSize!140 Int) (cache!131 Int))
    (=> (and (= lit!143 cache!131)
             (< j!142 litsSize!135)
             ($main_inv3 trail!130 cache!131 todo!132 args!133 size!134 litsSize!135 containsE!136 isApp!137 isShared!138 i!139 exprSize!140 found!141 j!142 lit!143))
        ($main_inv3 trail!130 cache!131 todo!132 args!133 size!134 litsSize!135 containsE!136 isApp!137 isShared!138 i!139 exprSize!140 found!141 (+ j!142 1) lit!143))))

; VERIFIER_assert (< args!147 litsSize!149)
(assert
  (forall ((i!153 Int) (cache!145 Int) (size!148 Int) (litsSize!149 Int) (isShared!152 Int) (j!156 Int) (args!147 Int) (containsE!150 Int) (found!155 Int) (todo!146 Int) (lit!157 Int) (isApp!151 Int) (trail!144 Int) (exprSize!154 Int))
    (=> (and (not (< args!147 litsSize!149))
             ($main_sum3 trail!144 cache!145 todo!146 args!147 size!148 litsSize!149 containsE!150 isApp!151 isShared!152 i!153 exprSize!154 found!155 j!156 lit!157))
        false)))

(check-sat)
